# Objective value = 1.0272444994177861e+05
e[1] 991.2117934
e[2] 991.0402734
e[3] 9.8932507340000006e+02
e[4] 9.8760987340000008e+02
e[5] 9.8589467340000033e+02
e[6] 9.8332187340000030e+02
e[7] 980.7490734
e[8] 9.7817627339999979e+02
e[9] 9.7645447397639668e+02
e[10] 9.7473267454860854e+02
e[11] 9.7301087512451818e+02
e[12] 9.7283275570148135e+02
e[13] 9.7265463627969564e+02
e[14] 9.7247651684970356e+02
e[15] 9.7229839742125694e+02
e[16] 9.7350802273704994e+02
e[17] 9.7471764807154352e+02
e[18] 9.7592727341550938e+02
e[19] 9.7850007341550941e+02
e[20] 9.8107287339999948e+02
e[21] 9.8364567339999962e+02
e[22] 9.8536087339999972e+02
e[23] 9.8707607339999981e+02
e[24] 988.7912734
e[25] 988.9627934
e[26] 989.1343134
pi[1] 0
pi[2] 1
pi[3] 0
pi[4] 0
pi[5] 1
pi[6] 0
pi[7] 0
pi[8] 1
pi[9] 0
pi[10] 0
pi[11] 1
pi[12] 0
pi[13] 0
pi[14] 0
pi[15] 1
pi[16] 0
pi[17] 0
pi[18] 1
pi[19] 0
pi[20] 0
pi[21] 1
pi[22] 0
pi[23] 0
pi[24] 1
pi[25] 0
e_bar 9.7036983032307671e+02
B_minus_s[0] 0
B_minus_s[1] 0
B_minus_s[2] 1
B_minus_s[3] 1
B_minus_s[4] 1
B_minus_s[5] 1
B_minus_s[6] 1
B_minus_s[7] 1
B_minus_s[8] 1
B_minus_s[9] 1
B_minus_s[10] 1
B_minus_s[11] 1
B_minus_s[12] 1
B_minus_s[13] 1
B_minus_s[14] 1
B_minus_s[15] 0
B_minus_s[16] 0
B_minus_s[17] 0
B_minus_s[18] 0
B_minus_s[19] 0
B_minus_s[20] 0
B_minus_s[21] 0
B_minus_s[22] 0
B_minus_s[23] 0
B_minus_s[24] 0
B_minus_s[25] 0
B_add_s[0] 0
B_add_s[1] 0
B_add_s[2] 0
B_add_s[3] 0
B_add_s[4] 0
B_add_s[5] 0
B_add_s[6] 0
B_add_s[7] 0
B_add_s[8] 0
B_add_s[9] 0
B_add_s[10] 0
B_add_s[11] 0
B_add_s[12] 0
B_add_s[13] 0
B_add_s[14] 0
B_add_s[15] 1
B_add_s[16] 1
B_add_s[17] 1
B_add_s[18] 1
B_add_s[19] 1
B_add_s[20] 1
B_add_s[21] 1
B_add_s[22] 1
B_add_s[23] 1
B_add_s[24] 1
B_add_s[25] 0
g_s[0] 0.17152
g_s[1] 0.17152
g_s[2] 1.7151999999999816e+00
g_s[3] 1.7151999999999576e+00
g_s[4] 1.7152000000000027e+00
g_s[5] 2.5728000000000271e+00
g_s[6] 2.5728000000000497e+00
g_s[7] 2.5727999999932525e+00
g_s[8] 1.7217994235960719e+00
g_s[9] 1.7217994235748779e+00
g_s[10] 1.7217994184144050e+00
g_s[11] 1.7811942303683281e-01
g_s[12] 1.7811941450744806e-01
g_s[13] 1.7811942876723430e-01
g_s[14] 1.7811942879136969e-01
g_s[15] 1.2096253157930050e+00
g_s[16] 1.2096253344935803e+00
g_s[17] 1.2096253439658540e+00
g_s[18] 2.5727999989300327e+00
g_s[19] 2.5728000000000009e+00
g_s[20] 2.5728000000000004e+00
g_s[21] 1.7151999999999576e+00
g_s[22] 1.7152000000000478e+00
g_s[23] 1.7152000000002090e+00
g_s[24] 0.17152
g_s[25] 0.17152
eth_minus_s[0] 0
eth_minus_s[1] 0
eth_minus_s[2] 0
eth_minus_s[3] 0
eth_minus_s[4] 0
eth_minus_s[5] 0
eth_minus_s[6] 0
eth_minus_s[7] 0
eth_minus_s[8] 0
eth_minus_s[9] 0
eth_minus_s[10] 0
eth_minus_s[11] 0
eth_minus_s[12] 0
eth_minus_s[13] 0
eth_minus_s[14] 0
eth_minus_s[15] 0
eth_minus_s[16] 0
eth_minus_s[17] 0
eth_minus_s[18] 0
eth_minus_s[19] 0
eth_minus_s[20] 0
eth_minus_s[21] 0
eth_minus_s[22] 0
eth_minus_s[23] 0
eth_minus_s[24] 0
eth_minus_s[25] 0
eth_add_s[0] 0
eth_add_s[1] 0
eth_add_s[2] 0
eth_add_s[3] 0
eth_add_s[4] 0
eth_add_s[5] 0
eth_add_s[6] 0
eth_add_s[7] 0
eth_add_s[8] 0
eth_add_s[9] 0
eth_add_s[10] 0
eth_add_s[11] 0
eth_add_s[12] 0
eth_add_s[13] 0
eth_add_s[14] 0
eth_add_s[15] 1.2096253157930050e+00
eth_add_s[16] 1.2096253344935803e+00
eth_add_s[17] 1.2096253439658540e+00
eth_add_s[18] 2.5727999989300327e+00
eth_add_s[19] 2.5728000000000009e+00
eth_add_s[20] 2.5728000000000004e+00
eth_add_s[21] 1.7151999999999576e+00
eth_add_s[22] 1.7152000000000478e+00
eth_add_s[23] 1.7152000000002090e+00
eth_add_s[24] 1.7151999999999340e-01
eth_add_s[25] 0
L2R_v[0] 0.1
L2R_v[1] 1.3587513128422028e+01
L2R_v[2] 1.5528847881860166e+01
L2R_v[3] 1.6392284575586352e+01
L2R_v[4] 1.7205270084341535e+01
L2R_v[5] 1.8410546114646237e+01
L2R_v[6] 1.9531789357885277e+01
L2R_v[7] 2.0582837004029010e+01
L2R_v[8] 2.1206221142522370e+01
L2R_v[9] 2.1806471611656519e+01
L2R_v[10] 2.2385499199114559e+01
L2R_v[11] 2.2314291408326845e+01
L2R_v[12] 2.2243492530350835e+01
L2R_v[13] 2.2173100845818507e+01
L2R_v[14] 2.2103114630537615e+01
L2R_v[15] 2.1443328891785704e+01
L2R_v[16] 2.0768748835045908e+01
L2R_v[17] 2.0077831201463557e+01
L2R_v[18] 1.8706778289582839e+01
L2R_v[19] 1.7240729720400733e+01
L2R_v[20] 1.5652911833440669e+01
L2R_v[21] 1.4460660995588695e+01
L2R_v[22] 1.3173111219773734e+01
L2R_v[23] 1.1758916726832249e+01
L2R_v[24] 1.0201549190408318e+01
L2R_v[25] 0.1
L2R_v2[0] 1.0000000000000002e-02
L2R_v2[1] 1.8462051302128526e+02
L2R_v2[2] 2.4114511653795296e+02
L2R_v2[3] 2.6870699360700621e+02
L2R_v2[4] 2.9602131867513776e+02
L2R_v2[5] 3.3894820823951562e+02
L2R_v2[6] 3.8149079552080053e+02
L2R_v2[7] 4.2365317913442584e+02
L2R_v2[8] 4.4970381514556283e+02
L2R_v2[9] 4.7552220414998169e+02
L2R_v2[10] 5.0111057439355858e+02
L2R_v2[11] 4.9792760105572927e+02
L2R_v2[12] 4.9477295994777347e+02
L2R_v2[13] 4.9164640111883739e+02
L2R_v2[14] 4.8854767637068596e+02
L2R_v2[15] 4.5981635396129155e+02
L2R_v2[16] 4.3134092817322079e+02
L2R_v2[17] 4.0311930575446354e+02
L2R_v2[18] 3.4994355397560787e+02
L2R_v2[19] 2.9724276129190912e+02
L2R_v2[20] 2.4501364886546693e+02
L2R_v2[21] 2.0911071642934024e+02
L2R_v2[22] 1.7353085920852863e+02
L2R_v2[23] 1.3827212258857523e+02
L2R_v2[24] 1.0407160588432062e+02
L2R_v2[25] 1.0000000000000002e-02
L2R_E_hat[0] 5.0000000000000010e-03
L2R_E_hat[1] 9.2310256510642631e+01
L2R_E_hat[2] 1.2057255826897648e+02
L2R_E_hat[3] 1.3435349680350311e+02
L2R_E_hat[4] 1.4801065933756888e+02
L2R_E_hat[5] 1.6947410411975781e+02
L2R_E_hat[6] 1.9074539776040027e+02
L2R_E_hat[7] 2.1182658956721292e+02
L2R_E_hat[8] 2.2485190757278141e+02
L2R_E_hat[9] 2.3776110207499084e+02
L2R_E_hat[10] 2.5055528719677929e+02
L2R_E_hat[11] 2.4896380052786463e+02
L2R_E_hat[12] 2.4738647997388674e+02
L2R_E_hat[13] 2.4582320055941869e+02
L2R_E_hat[14] 2.4427383818534298e+02
L2R_E_hat[15] 2.2990817698064578e+02
L2R_E_hat[16] 2.1567046408661039e+02
L2R_E_hat[17] 2.0155965287723177e+02
L2R_E_hat[18] 1.7497177698780393e+02
L2R_E_hat[19] 1.4862138064595456e+02
L2R_E_hat[20] 1.2250682443273347e+02
L2R_E_hat[21] 1.0455535821467012e+02
L2R_E_hat[22] 8.6765429604264313e+01
L2R_E_hat[23] 6.9136061294287614e+01
L2R_E_hat[24] 5.2035802942160309e+01
L2R_E_hat[25] 5.0000000000000010e-03
L2R_a[1] 1.0763206216259635e+00
L2R_a[2] 3.2955109326415344e-01
L2R_a[3] 1.6069191388207260e-01
L2R_a[4] 1.5924863029462055e-01
L2R_a[5] 2.5027337665800048e-01
L2R_a[6] 2.4803280830973007e-01
L2R_a[7] 2.4581613580705053e-01
L2R_a[8] 1.5188104017687110e-01
L2R_a[9] 1.5052698813210652e-01
L2R_a[10] 1.4918592725966029e-01
L2R_a[11] -1.8557447165516106e-02
L2R_a[12] -1.8392263922317298e-02
L2R_a[13] -1.8228537948554724e-02
L2R_a[14] -1.8066259026069176e-02
L2R_a[15] -1.6751004203238340e-01
L2R_a[16] -1.6601810743977818e-01
L2R_a[17] -1.6453837697503060e-01
L2R_a[18] -3.1002653788978352e-01
L2R_a[19] -3.0725742003089285e-01
L2R_a[20] -3.0450741853102947e-01
L2R_a[21] -2.0932213407256706e-01
L2R_a[22] -2.0743853323700812e-01
L2R_a[23] -2.0556632824133270e-01
L2R_a[24] -1.9939666921790233e-01
L2R_a[25] -6.0670245968004088e-01
L2R_f[1] 200
L2R_f[2] 3.1036420336029984e+01
L2R_f[3] 0
L2R_f[4] 0
L2R_f[5] 0
L2R_f[6] 0
L2R_f[7] 0
L2R_f[8] 0
L2R_f[9] 0
L2R_f[10] 0
L2R_f[11] 0
L2R_f[12] 0
L2R_f[13] 0
L2R_f[14] 0
L2R_f[15] 0
L2R_f[16] 0
L2R_f[17] 0
L2R_f[18] 0
L2R_f[19] 0
L2R_f[20] 0
L2R_f[21] 0
L2R_f[22] 0
L2R_f[23] 0
L2R_f[24] 0
L2R_f[25] 0
L2R_b[1] 0
L2R_b[2] 0
L2R_b[3] 0
L2R_b[4] 0
L2R_b[5] 0
L2R_b[6] 0
L2R_b[7] 0
L2R_b[8] 0
L2R_b[9] 0
L2R_b[10] 0
L2R_b[11] 0
L2R_b[12] 0
L2R_b[13] 0
L2R_b[14] 0
L2R_b[15] 2.8802291041074573e-07
L2R_b[16] 7.5795914966647636e-07
L2R_b[17] 2.8842672605833291e-07
L2R_b[18] 7.7523769448362167e-07
L2R_b[19] 2.8883456337780450e-07
L2R_b[20] 3.5777770790446095e-07
L2R_b[21] 0
L2R_b[22] 0
L2R_b[23] 0
L2R_b[24] 3.0328783016691780e+01
L2R_b[25] 1.0687144845963093e+02
L2R_f_max[1] 200
L2R_f_max[2] 200
L2R_f_max[3] 200
L2R_f_max[4] 200
L2R_f_max[5] 200
L2R_f_max[6] 200
L2R_f_max[7] 200
L2R_f_max[8] 200
L2R_f_max[9] 200
L2R_f_max[10] 200
L2R_f_max[11] 200
L2R_f_max[12] 200
L2R_f_max[13] 200
L2R_f_max[14] 200
L2R_f_max[15] 200
L2R_f_max[16] 200
L2R_f_max[17] 200
L2R_f_max[18] 200
L2R_f_max[19] 200
L2R_f_max[20] 200
L2R_f_max[21] 200
L2R_f_max[22] 200
L2R_f_max[23] 200
L2R_f_max[24] 200
L2R_f_max[25] 200
L2R_b_max[1] 200
L2R_b_max[2] 200
L2R_b_max[3] 200
L2R_b_max[4] 200
L2R_b_max[5] 200
L2R_b_max[6] 200
L2R_b_max[7] 200
L2R_b_max[8] 200
L2R_b_max[9] 200
L2R_b_max[10] 200
L2R_b_max[11] 200
L2R_b_max[12] 200
L2R_b_max[13] 200
L2R_b_max[14] 200
L2R_b_max[15] 200
L2R_b_max[16] 200
L2R_b_max[17] 200
L2R_b_max[18] 200
L2R_b_max[19] 200
L2R_b_max[20] 200
L2R_b_max[21] 200
L2R_b_max[22] 200
L2R_b_max[23] 200
L2R_b_max[24] 200
L2R_b_max[25] 200
L2R_gamma[1] 1
L2R_gamma[2] 1
L2R_gamma[3] 1
L2R_gamma[4] 1
L2R_gamma[5] 1
L2R_gamma[6] 1
L2R_gamma[7] 1
L2R_gamma[8] 1
L2R_gamma[9] 1
L2R_gamma[10] 1
L2R_gamma[11] 1
L2R_gamma[12] 1
L2R_gamma[13] 1
L2R_gamma[14] 1
L2R_gamma[15] 0
L2R_gamma[16] 0
L2R_gamma[17] 0
L2R_gamma[18] 0
L2R_gamma[19] 0
L2R_gamma[20] 0
L2R_gamma[21] 0
L2R_gamma[22] 0
L2R_gamma[23] 0
L2R_gamma[24] 0
L2R_gamma[25] 0
L2R_t[1] 1.2623354868251589e+01
L2R_t[2] 5.9171511032889050e+00
L2R_t[3] 5.3771771732406481e+00
L2R_t[4] 5.1081244138499047e+00
L2R_t[5] 4.8213594662955943e+00
L2R_t[6] 4.5244952133455083e+00
L2R_t[7] 4.2786844749748685e+00
L2R_t[8] 4.1053372402566817e+00
L2R_t[9] 3.9884368683311346e+00
L2R_t[10] 3.8819144727980919e+00
L2R_t[11] 3.8371641777362284e+00
L2R_t[12] 3.8493932568439053e+00
L2R_t[13] 3.8616295792840729e+00
L2R_t[14] 3.8738728390189778e+00
L2R_t[15] 3.93968759973356
L2R_t[16] 4.06433001826037
L2R_t[17] 4.2003293395902812e+00
L2R_t[18] 4.4279060946112194e+00
L2R_t[19] 4.7793509618128089e+00
L2R_t[20] 5.2265601113211844e+00
L2R_t[21] 5.7047127097394936e+00
L2R_t[22] 6.2204019169586395e+00
L2R_t[23] 6.9017100224352141e+00
L2R_t[24] 7.84987757772605
L2R_t[25] 1.6813132672170060e+01
L2R_Psi_t[1] 7.3596985006131321e-02
L2R_Psi_t[2] 6.4396277663852822e-02
L2R_Psi_t[3] 6.1004309398662936e-02
L2R_Psi_t[4] 5.8121726372089733e-02
L2R_Psi_t[5] 5.4316694017265722e-02
L2R_Psi_t[6] 5.1198586144709006e-02
L2R_Psi_t[7] 0.0485841674694433
L2R_Psi_t[8] 4.7155973394751423e-02
L2R_Psi_t[9] 4.5857946109239239e-02
L2R_Psi_t[10] 4.4671775737730887e-02
L2R_Psi_t[11] 4.4814329153505542e-02
L2R_Psi_t[12] 4.4956968813935960e-02
L2R_Psi_t[13] 4.5099691150711746e-02
L2R_Psi_t[14] 4.5242492595066318e-02
L2R_Psi_t[15] 4.6634550309167251e-02
L2R_Psi_t[16] 0.0481492654151879
L2R_Psi_t[17] 4.9806176273018268e-02
L2R_Psi_t[18] 5.3456559142354594e-02
L2R_Psi_t[19] 5.8002185302905879e-02
L2R_Psi_t[20] 6.3885876994695237e-02
L2R_Psi_t[21] 6.9153132094380440e-02
L2R_Psi_t[22] 7.5912211118276465e-02
L2R_Psi_t[23] 8.5041847240752713e-02
L2R_Psi_t[24] 9.8024327612929424e-02
L2R_phi_n[1] 2.4174644708489097e+04
L2R_phi_n[2] 3.0797537849747118e+03
L2R_phi_n[3] 1.3276980674668266e+03
L2R_phi_n[4] 1.2612652873703469e+03
L2R_phi_n[5] 1.1904591274803936e+03
L2R_phi_n[6] 1.1171593119371626e+03
L2R_phi_n[7] 1.0564653024629304e+03
L2R_phi_n[8] 1.0136635161127608e+03
L2R_phi_n[9] 9.8479922674842828e+02
L2R_phi_n[10] 9.5849740069088682e+02
L2R_phi_n[11] 9.4744794512005637e+02
L2R_phi_n[12] 7.8877015771662320e+02
L2R_phi_n[13] 9.5348878500841306e+02
L2R_phi_n[14] 9.5651181210345123e+02
L2R_phi_n[15] 9.7276237030458265e+02
L2R_phi_n[16] 1.0035381885450444e+03
L2R_phi_n[17] 1.0371183554543904e+03
L2R_phi_n[18] 0
L2R_phi_n[19] 1.1800866572377306e+03
L2R_phi_n[20] 5.0514101342289780e+02
L2R_phi_n[21] 0
L2R_phi_n[22] 9.5084258244874536e+02
L2R_phi_n[23] 3.3391321696922751e+02
L2R_phi_n[24] 1.5123999131358423e+03
L2R_phi_n[25] 0
L2R_phi_b[1] 1.0578751086033481e+02
L2R_phi_b[2] 1.5005700698291064e+03
L2R_phi_b[3] 0
L2R_phi_b[4] 0
L2R_phi_b[5] 0
L2R_phi_b[6] 0
L2R_phi_b[7] 0
L2R_phi_b[8] 0
L2R_phi_b[9] 0
L2R_phi_b[10] 0
L2R_phi_b[11] 0
L2R_phi_b[12] 1.4552758179812918e+02
L2R_phi_b[13] 0
L2R_phi_b[14] 0
L2R_phi_b[15] 0
L2R_phi_b[16] 7.8811764538500042e-05
L2R_phi_b[17] 0
L2R_phi_b[18] 9.8397913213583035e+02
L2R_phi_b[19] 0
L2R_phi_b[20] 7.0683089043521068e+02
L2R_phi_b[21] 1.2677139354976653e+03
L2R_phi_b[22] 5.2655321289804886e+02
L2R_phi_b[23] 1.2331914430466315e+03
L2R_phi_b[24] 3.8325731767241973e+02
L2R_phi_b[25] 3.7362517049268436e+03
L2R_w0[1] 2.0905450000000005e+00
L2R_w0[2] 3.42269096329689
L2R_w0[3] 3.8091259667389239e+00
L2R_w0[4] 3.9967398472862863e+00
L2R_w0[5] 4.1822502182149428e+00
L2R_w0[6] 4.4730867054803856e+00
L2R_w0[7] 4.76060170659248
L2R_w0[8] 5.0449574670132531e+00
L2R_w0[9] 5.2203957656428770e+00
L2R_w0[10] 5.3940977487691146e+00
L2R_w0[11] 5.5660966257094540e+00
L2R_w0[12] 5.5447094626638433e+00
L2R_w0[13] 5.5235104664579655e+00
L2R_w0[14] 5.5024979955614644e+00
L2R_w0[15] 5.4816704197887276e+00
L2R_w0[16] 5.2884509238878952e+00
L2R_w0[17] 5.0967497717093853e+00
L2R_w0[18] 4.9065382331783560e+00
L2R_w0[19] 4.5474595280793633e+00
L2R_w0[20] 4.1905370996573366e+00
L2R_w0[21] 3.8354872535932536e+00
L2R_w0[22] 3.5904341345474808e+00
L2R_w0[23] 3.3465470748092185e+00
L2R_w0[24] 3.1035061807486954e+00
L2R_w0[25] 2.8659406203140856e+00
L2R_wi[1] -3.4593999999997322e+00
L2R_wi[2] -3.4593999999997322e+01
L2R_wi[3] -3.4593999999999141e+01
L2R_wi[4] -3.4594000000000051e+01
L2R_wi[5] -5.1891000000000538e+01
L2R_wi[6] -5.1891000000000993e+01
L2R_wi[7] -51.8909999998639
L2R_wi[8] -3.4727104279315824e+01
L2R_wi[9] -3.4727104382563326e+01
L2R_wi[10] -3.4727104270192676e+01
L2R_wi[11] -3.5925043635976266e+00
L2R_wi[12] -3.5925044565516018e+00
L2R_wi[13] -3.5925043840123365e+00
L2R_wi[14] -3.5925043841001880e+00
L2R_wi[15] 2.4397025503676318e+01
L2R_wi[16] 2.4397025610475616e+01
L2R_wi[17] 2.4397025801308835e+01
L2R_wi[18] 5.1890999978419742e+01
L2R_wi[19] 5.1891000000000012e+01
L2R_wi[20] 51.891
L2R_wi[21] 3.4593999999999141e+01
L2R_wi[22] 3.4594000000000960e+01
L2R_wi[23] 34.5940000000046
L2R_wi[24] 3.4593999999997322e+00
L2R_wi[25] 3.4593999999997322e+00
L2R_wtn[1] 2.9900000000000005e-05
L2R_wtn[2] 0.552015333933643
L2R_wtn[3] 7.2102389844847936e-01
L2R_wtn[4] 8.0343391088494853e-01
L2R_wtn[5] 0.885103742838662
L2R_wtn[6] 1.0134551426361518e+00
L2R_wtn[7] 1.1406574786071937e+00
L2R_wtn[8] 1.2667230056119334e+00
L2R_wtn[9] 1.3446144072852328e+00
L2R_wtn[10] 1.4218113904084453e+00
L2R_wtn[11] 1.4983206174367403e+00
L2R_wtn[12] 1.4888035271566307e+00
L2R_wtn[13] 1.4793711502438427e+00
L2R_wtn[14] 1.4700227393453238e+00
L2R_wtn[15] 1.4607575523483511e+00
L2R_wtn[16] 1.3748508983442618e+00
L2R_wtn[17] 1.2897093752379303e+00
L2R_wtn[18] 1.2053267242058461e+00
L2R_wtn[19] 1.0463312263870677e+00
L2R_wtn[20] 8.8875585626280829e-01
L2R_wtn[21] 7.3259081010774618e-01
L2R_wtn[22] 6.2524104212372733e-01
L2R_wtn[23] 5.1885726903350060e-01
L2R_wtn[24] 4.1343364653983994e-01
L2R_wtn[25] 3.1117410159411868e-01
L2R_T 1.4017609417187498e+02
L2R_varpi[0] 60
L2R_varpi[1] 5.9160416580473530e+01
L2R_varpi[2] 4.7251130311988781e+01
L2R_varpi[3] 4.7251130311989023e+01
L2R_varpi[4] 47.2511303119894
L2R_varpi[5] 4.7251130311988959e+01
L2R_varpi[6] 4.7251130311990309e+01
L2R_varpi[7] 4.7251130311989023e+01
L2R_varpi[8] 4.7251130311990025e+01
L2R_varpi[9] 4.7251130311990906e+01
L2R_varpi[10] 4.7251130311991346e+01
L2R_varpi[11] 47.2511303119915
L2R_varpi[12] 4.6096149504069565e+01
L2R_varpi[13] 4.6096149504069565e+01
L2R_varpi[14] 4.6096149504069565e+01
L2R_varpi[15] 4.6096149680504368e+01
L2R_varpi[16] 4.6096149781932532e+01
L2R_varpi[17] 4.6096150033739448e+01
L2R_varpi[18] 3.8286791842183824e+01
L2R_varpi[19] 3.8286791842182836e+01
L2R_varpi[20] 3.2677023387149760e+01
L2R_varpi[21] 2.2615801678530033e+01
L2R_varpi[22] 1.8436807925370452e+01
L2R_varpi[23] 8.6495742546167520e+00
L2R_varpi[24] 2.4186395450552169e+01
L2R_varpi[25] 60
L2R_kappa_plus[0] 0
L2R_kappa_plus[1] 500
L2R_kappa_plus[2] 500
L2R_kappa_plus[3] 500
L2R_kappa_plus[4] 500
L2R_kappa_plus[5] 500
L2R_kappa_plus[6] 500
L2R_kappa_plus[7] 500
L2R_kappa_plus[8] 500
L2R_kappa_plus[9] 500
L2R_kappa_plus[10] 500
L2R_kappa_plus[11] 500
L2R_kappa_plus[12] 500
L2R_kappa_plus[13] 500
L2R_kappa_plus[14] 500
L2R_kappa_plus[15] 500
L2R_kappa_plus[16] 5.3000493962729827e-06
L2R_kappa_plus[17] 500
L2R_kappa_plus[18] 5.4002807510627363e-06
L2R_kappa_plus[19] 500
L2R_kappa_plus[20] 500
L2R_kappa_plus[21] 0
L2R_kappa_plus[22] 4.2428858463434756e+02
L2R_kappa_plus[23] 2.9820806314261768e+02
L2R_kappa_plus[24] 4.9061445234480550e+02
L2R_kappa_plus[25] 0
L2R_kappa_minus[0] 500
L2R_kappa_minus[1] 500
L2R_kappa_minus[2] 500
L2R_kappa_minus[3] 500
L2R_kappa_minus[4] 500
L2R_kappa_minus[5] 500
L2R_kappa_minus[6] 500
L2R_kappa_minus[7] 500
L2R_kappa_minus[8] 500
L2R_kappa_minus[9] 500
L2R_kappa_minus[10] 500
L2R_kappa_minus[11] 500
L2R_kappa_minus[12] 500
L2R_kappa_minus[13] 500
L2R_kappa_minus[14] 500
L2R_kappa_minus[15] 500
L2R_kappa_minus[16] 0
L2R_kappa_minus[17] 500
L2R_kappa_minus[18] 0
L2R_kappa_minus[19] 4.8900153876548103e+02
L2R_kappa_minus[20] 2.2222222222222223e+02
L2R_kappa_minus[21] 84.6493876000182
L2R_kappa_minus[22] 4.2428858463434756e+02
L2R_kappa_minus[23] 4.8823349648140827e+01
L2R_kappa_minus[24] 2.2222222222222223e+02
L2R_kappa_minus[25] 0
L2R_xi[1] 0
L2R_xi[2] 0
L2R_xi[3] 0
L2R_xi[4] 0
L2R_xi[5] 0
L2R_xi[6] 0
L2R_xi[7] 0
L2R_xi[8] 0
L2R_xi[9] 0
L2R_xi[10] 0
L2R_xi[11] 0
L2R_xi[12] 0
L2R_xi[13] 0
L2R_xi[14] 0
L2R_xi[15] 2.2230768502595320e-05
L2R_xi[16] 5.8502341739646005e-05
L2R_xi[17] 2.2261928424086372e-05
L2R_xi[18] 5.9835955300392027e-05
L2R_xi[19] 2.2293406939752462e-05
L2R_xi[20] 2.7614732684048812e-05
L2R_xi[21] 2.1166658825677592e-07
L2R_xi[22] 0
L2R_xi[23] 5.3161786127020649e-07
L2R_xi[24] 2.3408967883602822e+03
L2R_xi[25] 8248.76587790841
R2L_v[0] 0.1
R2L_v[1] 1.0201549190395879e+01
R2L_v[2] 1.1790574565303165e+01
R2L_v[3] 1.3201635765661685e+01
R2L_v[4] 1.4486886644911875e+01
R2L_v[5] 1.6179645795903326e+01
R2L_v[6] 1.7724604240538639e+01
R2L_v[7] 1.9157634612698164e+01
R2L_v[8] 2.0111371466458497e+01
R2L_v[9] 2.1029897493321794e+01
R2L_v[10] 2.1917701120674430e+01
R2L_v[11] 2.2137236889762207e+01
R2L_v[12] 2.2356559741763768e+01
R2L_v[13] 2.2575692730271239e+01
R2L_v[14] 2.2794658168120375e+01
R2L_v[15] 2.2443921167041729e+01
R2L_v[16] 2.2084389022912056e+01
R2L_v[17] 2.1715594160496114e+01
R2L_v[18] 2.0732487749050492e+01
R2L_v[19] 19.6908448452873
R2L_v[20] 1.8580717938131343e+01
R2L_v[21] 1.7843035094294930e+01
R2L_v[22] 1.7066395789320708e+01
R2L_v[23] 1.6245135726953094e+01
R2L_v[24] 1.3587513128422026e+01
R2L_v[25] 0.1
R2L_v2[0] 1.0000000000000002e-02
R2L_v2[1] 1.0407160588406681e+02
R2L_v2[2] 1.3901764857997392e+02
R2L_v2[3] 1.7428318688919776e+02
R2L_v2[4] 2.0986988466252603e+02
R2L_v2[5] 2.6178093808089216e+02
R2L_v2[6] 3.1416159548372030e+02
R2L_v2[7] 3.6701496395365075e+02
R2L_v2[8] 404.467262261881
R2L_v2[9] 4.4225658857962230e+02
R2L_v2[10] 4.8038562241521316e+02
R2L_v2[11] 4.9005725711344871e+02
R2L_v2[12] 4.9981576348705244e+02
R2L_v2[13] 5.0966190225162165e+02
R2L_v2[14] 5.1959644100145692e+02
R2L_v2[15] 5.0372959735238379e+02
R2L_v2[16] 4.8772023851531844e+02
R2L_v2[17] 4.7156702974337287e+02
R2L_v2[18] 4.2983604826452870e+02
R2L_v2[19] 3.8772937072117747e+02
R2L_v2[20] 3.4524307909639589e+02
R2L_v2[21] 3.1837390137624044e+02
R2L_v2[22] 2.9126186523774356e+02
R2L_v2[23] 2.6390443478712785e+02
R2L_v2[24] 1.8462051302128526e+02
R2L_v2[25] 1.0000000000000002e-02
R2L_E_hat[0] 5.0000000000000010e-03
R2L_E_hat[1] 5.0000000000000010e-03
R2L_E_hat[2] 5.0000000000000010e-03
R2L_E_hat[3] 3.1250019858173710e+02
R2L_E_hat[4] 3.1250019858173710e+02
R2L_E_hat[5] 3.1250019858173710e+02
R2L_E_hat[6] 5.0000000000000010e-03
R2L_E_hat[7] 3.1250019858173710e+02
R2L_E_hat[8] 3.1250019858173710e+02
R2L_E_hat[9] 3.1250019858173710e+02
R2L_E_hat[10] 3.1250019858173710e+02
R2L_E_hat[11] 3.1250019858173710e+02
R2L_E_hat[12] 3.1250019858173710e+02
R2L_E_hat[13] 3.1250019858173710e+02
R2L_E_hat[14] 3.1250019858173710e+02
R2L_E_hat[15] 3.1250019858173710e+02
R2L_E_hat[16] 3.1250019858173710e+02
R2L_E_hat[17] 3.1250019858173710e+02
R2L_E_hat[18] 5.0000000000000010e-03
R2L_E_hat[19] 3.1250019858173710e+02
R2L_E_hat[20] 3.1250019858173710e+02
R2L_E_hat[21] 3.1250019858173710e+02
R2L_E_hat[22] 3.1250019858173710e+02
R2L_E_hat[23] 3.1250019858173710e+02
R2L_E_hat[24] 3.1250019858173710e+02
R2L_E_hat[25] 3.1250019858173732e+02
R2L_a[1] -6.0670245967856118e-01
R2L_a[2] -2.0374325265804050e-01
R2L_a[3] -2.0560598361254567e-01
R2L_a[4] -2.0747841518964716e-01
R2L_a[5] -3.0265306330670549e-01
R2L_a[6] -3.0539095967132535e-01
R2L_a[7] -3.0814697102336353e-01
R2L_a[8] -2.1835528397984927e-01
R2L_a[9] -2.2032023272931345e-01
R2L_a[10] -2.2230080361230609e-01
R2L_a[11] -5.6387795582089062e-02
R2L_a[12] -5.6894276898362461e-02
R2L_a[13] -5.7405193356877326e-02
R2L_a[14] -5.7920585062021468e-02
R2L_a[15] 0.0925072507525534
R2L_a[16] 9.3338146204875461e-02
R2L_a[17] 9.4176823530466247e-02
R2L_a[18] 0.243300964778709
R2L_a[19] 2.4549135694584434e-01
R2L_a[20] 2.4770459202881054e-01
R2L_a[21] 1.5665332159605555e-01
R2L_a[22] 1.5806924054627380e-01
R2L_a[23] 1.5949994432495163e-01
R2L_a[24] 4.6224301402660095e-01
R2L_a[25] 1.0763206216259635e+00
R2L_f[1] 0
R2L_f[2] 0
R2L_f[3] 0
R2L_f[4] 0
R2L_f[5] 0
R2L_f[6] 1.7790519141192007e-08
R2L_f[7] 1.8227403586479340e-08
R2L_f[8] 0
R2L_f[9] 0
R2L_f[10] 0
R2L_f[11] 0
R2L_f[12] 0
R2L_f[13] 0
R2L_f[14] 0
R2L_f[15] 0
R2L_f[16] 0
R2L_f[17] 4.8043563793953581e-08
R2L_f[18] 0
R2L_f[19] -1.8040869518753576e-08
R2L_f[20] -1.7578014875252090e-08
R2L_f[21] 0
R2L_f[22] 0
R2L_f[23] 0
R2L_f[24] 8.6996351791467532e+01
R2L_f[25] 200
R2L_b[1] 1.0687144845935661e+02
R2L_b[2] 8.6559521150775275e-07
R2L_b[3] 0
R2L_b[4] 0
R2L_b[5] 0
R2L_b[6] 0
R2L_b[7] 0
R2L_b[8] 0
R2L_b[9] 4.13420480072091e-08
R2L_b[10] 4.9930690693145152e-08
R2L_b[11] 2.0329119276851770e-08
R2L_b[12] 0
R2L_b[13] 0
R2L_b[14] 0
R2L_b[15] 0
R2L_b[16] 0
R2L_b[17] 0
R2L_b[18] 0
R2L_b[19] 0
R2L_b[20] 0
R2L_b[21] 0
R2L_b[22] 0
R2L_b[23] 0
R2L_b[24] 0
R2L_b[25] 0
R2L_f_max[1] 200
R2L_f_max[2] 200
R2L_f_max[3] 200
R2L_f_max[4] 200
R2L_f_max[5] 200
R2L_f_max[6] 200
R2L_f_max[7] 200
R2L_f_max[8] 200
R2L_f_max[9] 200
R2L_f_max[10] 200
R2L_f_max[11] 200
R2L_f_max[12] 200
R2L_f_max[13] 200
R2L_f_max[14] 200
R2L_f_max[15] 200
R2L_f_max[16] 200
R2L_f_max[17] 200
R2L_f_max[18] 200
R2L_f_max[19] 200
R2L_f_max[20] 200
R2L_f_max[21] 200
R2L_f_max[22] 200
R2L_f_max[23] 200
R2L_f_max[24] 200
R2L_f_max[25] 200
R2L_b_max[1] 200
R2L_b_max[2] 200
R2L_b_max[3] 200
R2L_b_max[4] 200
R2L_b_max[5] 200
R2L_b_max[6] 200
R2L_b_max[7] 200
R2L_b_max[8] 200
R2L_b_max[9] 200
R2L_b_max[10] 200
R2L_b_max[11] 200
R2L_b_max[12] 200
R2L_b_max[13] 200
R2L_b_max[14] 200
R2L_b_max[15] 200
R2L_b_max[16] 200
R2L_b_max[17] 200
R2L_b_max[18] 200
R2L_b_max[19] 200
R2L_b_max[20] 200
R2L_b_max[21] 200
R2L_b_max[22] 200
R2L_b_max[23] 200
R2L_b_max[24] 200
R2L_b_max[25] 200
R2L_gamma[1] 0
R2L_gamma[2] 0
R2L_gamma[3] 0
R2L_gamma[4] 0
R2L_gamma[5] 0
R2L_gamma[6] 0
R2L_gamma[7] 1
R2L_gamma[8] 1
R2L_gamma[9] 1
R2L_gamma[10] 1
R2L_gamma[11] 1
R2L_gamma[12] 1
R2L_gamma[13] 1
R2L_gamma[14] 1
R2L_gamma[15] 1
R2L_gamma[16] 1
R2L_gamma[17] 1
R2L_gamma[18] 1
R2L_gamma[19] 1
R2L_gamma[20] 1
R2L_gamma[21] 1
R2L_gamma[22] 0
R2L_gamma[23] 0
R2L_gamma[24] 1
R2L_gamma[25] 1
R2L_t[1] 1.6813132672190360e+01
R2L_t[2] 7.8400864266592372e+00
R2L_t[3] 6.8848855994027023e+00
R2L_t[4] 6.2080005793353079e+00
R2L_t[5] 5.6101616703787380e+00
R2L_t[6] 5.0694793943462413e+00
R2L_t[7] 4.6575081118082915e+00
R2L_t[8] 4.3703992432400982e+00
R2L_t[9] 4.1711289489748875e+00
R2L_t[10] 3.9954114147707687e+00
R2L_t[11] 3.8934173359823845e+00
R2L_t[12] 3.8550130729119063e+00
R2L_t[13] 3.8173933027124942e+00
R2L_t[14] 3.7805304949433260e+00
R2L_t[15] 3.7916820813739811e+00
R2L_t[16] 3.8521826216523571e+00
R2L_t[17] 3.9162608859628070e+00
R2L_t[18] 4.0428694105307690e+00
R2L_t[19] 4.2459133217868308e+00
R2L_t[20] 4.4854305067285827e+00
R2L_t[21] 4.7109473332148024e+00
R2L_t[22] 4.9157184728549739e+00
R2L_t[23] 5.1520992344777987e+00
R2L_t[24] 5.7953980732125645e+00
R2L_t[25] 1.2623354868251589e+01
R2L_Psi_t[1] 9.8024327613048967e-02
R2L_Psi_t[2] 8.4813508829566314e-02
R2L_Psi_t[3] 7.5748188917699522e-02
R2L_Psi_t[4] 6.9027943995904936e-02
R2L_Psi_t[5] 6.1806050182705435e-02
R2L_Psi_t[6] 0.0564187491257413
R2L_Psi_t[7] 0.0521985109444135
R2L_Psi_t[8] 4.9723113198311110e-02
R2L_Psi_t[9] 4.7551349231139031e-02
R2L_Psi_t[10] 4.5625222941685452e-02
R2L_Psi_t[11] 4.5172755975813286e-02
R2L_Psi_t[12] 4.4729601135004834e-02
R2L_Psi_t[13] 4.4295429245416795e-02
R2L_Psi_t[14] 0.0438699274463592
R2L_Psi_t[15] 4.4555494227473583e-02
R2L_Psi_t[16] 0.0452808542252413
R2L_Psi_t[17] 4.6049856734712249e-02
R2L_Psi_t[18] 4.8233478398934375e-02
R2L_Psi_t[19] 5.0785022575571936e-02
R2L_Psi_t[20] 5.3819233644777545e-02
R2L_Psi_t[21] 5.6044276924598804e-02
R2L_Psi_t[22] 5.8594679998324524e-02
R2L_Psi_t[23] 0.0615568879699079
R2L_Psi_t[24] 7.3596985006131321e-02
R2L_phi_n[1] 0
R2L_phi_n[2] 1.9358238090516634e+03
R2L_phi_n[3] 1.5860671163213390e+03
R2L_phi_n[4] 9.8762992414613529e+02
R2L_phi_n[5] 1.3852251037972192e+03
R2L_phi_n[6] 8.4263983298443054e+02
R2L_phi_n[7] 1.1500020048454819e+03
R2L_phi_n[8] 0
R2L_phi_n[9] 1.0299083824629352e+03
R2L_phi_n[10] 0
R2L_phi_n[11] 9.6133761382281091e+02
R2L_phi_n[12] 0
R2L_phi_n[13] 9.4256624758333191e+02
R2L_phi_n[14] 5.2448616443829223e+00
R2L_phi_n[15] 9.3621779787011872e+02
R2L_phi_n[16] 9.5115620287712522e+02
R2L_phi_n[17] 9.6697800162071280e+02
R2L_phi_n[18] 9.9823936034731832e+02
R2L_phi_n[19] 1.0483736577903471e+03
R2L_phi_n[20] 1.1075137035039827e+03
R2L_phi_n[21] 1.1631968723987166e+03
R2L_phi_n[22] 1.2137576473409033e+03
R2L_phi_n[23] 1.2721232677722960e+03
R2L_phi_n[24] 1.0641835486763912e+04
R2L_phi_n[25] 2.4292186387222806e+04
R2L_phi_b[1] 3.7362517049312482e+03
R2L_phi_b[2] 0
R2L_phi_b[3] 1.0251417295583997e+02
R2L_phi_b[4] 4.9068875256521329e+02
R2L_phi_b[5] 0
R2L_phi_b[6] 3.6817512853063829e+02
R2L_phi_b[7] 0
R2L_phi_b[8] 9.7119983183112652e+02
R2L_phi_b[9] 0
R2L_phi_b[10] 8.8786920328230076e+02
R2L_phi_b[11] 0
R2L_phi_b[12] 8.5666957175821051e+02
R2L_phi_b[13] 0
R2L_phi_b[14] 8.3539751228523892e+02
R2L_phi_b[15] 0
R2L_phi_b[16] 0
R2L_phi_b[17] 0
R2L_phi_b[18] 2.4980657542528212e-07
R2L_phi_b[19] 0
R2L_phi_b[20] 0
R2L_phi_b[21] 0
R2L_phi_b[22] 2.4984775848224677e-07
R2L_phi_b[23] 0
R2L_phi_b[24] 0
R2L_phi_b[25] 0
R2L_w0[1] 2.8659406203123137e+00
R2L_w0[2] 3.1086623465098016e+00
R2L_w0[3] 3.35171674528327
R2L_w0[4] 3.5956257394265556e+00
R2L_w0[5] 3.9496366263256517e+00
R2L_w0[6] 4.3052514922014611e+00
R2L_w0[7] 4.6628420849031729e+00
R2L_w0[8] 4.91562864507352
R2L_w0[9] 5.1702608212020982e+00
R2L_w0[10] 5.4268000166814954e+00
R2L_w0[11] 5.4918170927570866e+00
R2L_w0[12] 5.5573967481351252e+00
R2L_w0[13] 5.6235441533921984e+00
R2L_w0[14] 5.69026451655705
R2L_w0[15] 5.5836928102275039e+00
R2L_w0[16] 5.4761085627741082e+00
R2L_w0[17] 5.3674985161047859e+00
R2L_w0[18] 5.0866126936601326e+00
R2L_w0[19] 4.8027111891714691e+00
R2L_w0[20] 4.51567104992026
R2L_w0[21] 4.3337921028696531e+00
R2L_w0[22] 4.1499528027806765e+00
R2L_w0[23] 3.9640811562404714e+00
R2L_w0[24] 3.4226909632968905e+00
R2L_w0[25] 2.0905450000000005e+00
R2L_wi[1] 3.4593999999997322e+00
R2L_wi[2] 3.4593999999997322e+01
R2L_wi[3] 3.4593999999999141e+01
R2L_wi[4] 3.4594000000000051e+01
R2L_wi[5] 5.1891000000000538e+01
R2L_wi[6] 5.1891000000000993e+01
R2L_wi[7] 51.8909999998639
R2L_wi[8] 3.4727104279315824e+01
R2L_wi[9] 3.4727104382563326e+01
R2L_wi[10] 3.4727104270192676e+01
R2L_wi[11] 3.5925043635976266e+00
R2L_wi[12] 3.5925044565516018e+00
R2L_wi[13] 3.5925043840123365e+00
R2L_wi[14] 3.5925043841001880e+00
R2L_wi[15] -2.4397025503676318e+01
R2L_wi[16] -2.4397025610475616e+01
R2L_wi[17] -2.4397025801308835e+01
R2L_wi[18] -5.1890999978419742e+01
R2L_wi[19] -5.1891000000000012e+01
R2L_wi[20] -51.891
R2L_wi[21] -3.4593999999999141e+01
R2L_wi[22] -3.4594000000000960e+01
R2L_wi[23] -34.5940000000046
R2L_wi[24] -3.4593999999997322e+00
R2L_wi[25] -3.4593999999997322e+00
R2L_wtn[1] 3.1117410159335979e-01
R2L_wtn[2] 4.1566276925412204e-01
R2L_wtn[3] 5.2110672879870135e-01
R2L_wtn[4] 6.2751095514095290e-01
R2L_wtn[5] 7.8272500486186758e-01
R2L_wtn[6] 9.3934317049632376e-01
R2L_wtn[7] 1.0973747422214157e+00
R2L_wtn[8] 1.2093571141630242e+00
R2L_wtn[9] 1.3223471998530707e+00
R2L_wtn[10] 1.4363530110214875e+00
R2L_wtn[11] 1.4652711987692117e+00
R2L_wtn[12] 1.4944491328262868e+00
R2L_wtn[13] 1.5238890877323488e+00
R2L_wtn[14] 1.5535933585943562e+00
R2L_wtn[15] 1.5061514960836275e+00
R2L_wtn[16] 1.4582835131608023e+00
R2L_wtn[17] 1.4099854189326850e+00
R2L_wtn[18] 1.2852097843109409e+00
R2L_wtn[19] 1.1593108184563208e+00
R2L_wtn[20] 1.0322768064982237e+00
R2L_wtn[21] 0.951937965114959
R2L_wtn[22] 8.7087297706085331e-01
R2L_wtn[23] 7.8907426001351233e-01
R2L_wtn[24] 0.552015333933643
R2L_wtn[25] 2.9900000000000005e-05
R2L_T 1.3849840507770381e+02
R2L_varpi[0] 60
R2L_varpi[1] 2.4186395982970748e+01
R2L_varpi[2] 2.4186395452731428e+01
R2L_varpi[3] 25
R2L_varpi[4] 2.8894355177083451e+01
R2L_varpi[5] 2.8894355177083103e+01
R2L_varpi[6] 3.1816380006691343e+01
R2L_varpi[7] 3.1816380006688579e+01
R2L_varpi[8] 3.9524315179953653e+01
R2L_varpi[9] 3.9524315154628219e+01
R2L_varpi[10] 4.6570896158385324e+01
R2L_varpi[11] 4.6570896158385324e+01
R2L_varpi[12] 5.3369861013609039e+01
R2L_varpi[13] 5.3369861013608748e+01
R2L_varpi[14] 60
R2L_varpi[15] 60
R2L_varpi[16] 60
R2L_varpi[17] 60
R2L_varpi[18] 60
R2L_varpi[19] 60
R2L_varpi[20] 60
R2L_varpi[21] 60
R2L_varpi[22] 60
R2L_varpi[23] 60
R2L_varpi[24] 60
R2L_varpi[25] 60
R2L_kappa_plus[0] 0
R2L_kappa_plus[1] 4.9061445848666040e+02
R2L_kappa_plus[2] 4.9061445236994655e+02
R2L_kappa_plus[3] 500
R2L_kappa_plus[4] 500
R2L_kappa_plus[5] 500
R2L_kappa_plus[6] 500
R2L_kappa_plus[7] 500
R2L_kappa_plus[8] 500
R2L_kappa_plus[9] 500
R2L_kappa_plus[10] 500
R2L_kappa_plus[11] 500
R2L_kappa_plus[12] 500
R2L_kappa_plus[13] 500
R2L_kappa_plus[14] 500
R2L_kappa_plus[15] 500
R2L_kappa_plus[16] 500
R2L_kappa_plus[17] 500
R2L_kappa_plus[18] 500
R2L_kappa_plus[19] 500
R2L_kappa_plus[20] 0
R2L_kappa_plus[21] 0
R2L_kappa_plus[22] 500
R2L_kappa_plus[23] 500
R2L_kappa_plus[24] 0
R2L_kappa_plus[25] 0
R2L_kappa_minus[0] 0
R2L_kappa_minus[1] 2.2222222222222223e+02
R2L_kappa_minus[2] 4.9061445236994581e+02
R2L_kappa_minus[3] 500
R2L_kappa_minus[4] 500
R2L_kappa_minus[5] 500
R2L_kappa_minus[6] 500
R2L_kappa_minus[7] 500
R2L_kappa_minus[8] 500
R2L_kappa_minus[9] 500
R2L_kappa_minus[10] 500
R2L_kappa_minus[11] 500
R2L_kappa_minus[12] 500
R2L_kappa_minus[13] 500
R2L_kappa_minus[14] 500
R2L_kappa_minus[15] 500
R2L_kappa_minus[16] 500
R2L_kappa_minus[17] 500
R2L_kappa_minus[18] 500
R2L_kappa_minus[19] 500
R2L_kappa_minus[20] 500
R2L_kappa_minus[21] 500
R2L_kappa_minus[22] 500
R2L_kappa_minus[23] 500
R2L_kappa_minus[24] 500
R2L_kappa_minus[25] 500
R2L_xi[1] 8248.76587788706
R2L_xi[2] 6.6810109900074181e-05
R2L_xi[3] 0
R2L_xi[4] 2.5263667794206425e-07
R2L_xi[5] 0
R2L_xi[6] 0
R2L_xi[7] 0
R2L_xi[8] 0
R2L_xi[9] 3.1909464523778319e-06
R2L_xi[10] 0
R2L_xi[11] 0
R2L_xi[12] 0
R2L_xi[13] 0
R2L_xi[14] 0
R2L_xi[15] 0
R2L_xi[16] 0
R2L_xi[17] 0
R2L_xi[18] 0
R2L_xi[19] 0
R2L_xi[20] 0
R2L_xi[21] 0
R2L_xi[22] 2.4948856935225209e-07
R2L_xi[23] 0
R2L_xi[24] 0
R2L_xi[25] 0
